NAME: ../File/prFile/tspFile/tsp_file12.tsp
COMMENT: TSP file generated by Python
TYPE: TSP
DIMENSION: 30
EDGE_WEIGHT_TYPE: EUC_2D
NODE_COORD_SECTION
1 50 91
2 81 89
3 12 7
4 54 60
5 64 17
6 76 43
7 5 4
8 61 68
9 53 90
10 25 73
11 1 69
12 76 27
13 85 14
14 24 44
15 75 99
16 14 8
17 57 4
18 80 38
19 97 50
20 53 34
21 59 51
22 37 73
23 41 6
24 53 8
25 35 78
26 85 99
27 19 93
28 74 90
29 71 31
30 93 54
EOF
